Version identifier: 22.1.0.0 | 2022-03-09 | 1a383f8ce
CPXPARAM_Read_DataCheck                          1
CPXPARAM_TimeLimit                               600
Tried aggregator 4 times.
MIP Presolve eliminated 31876 rows and 4278 columns.
MIP Presolve modified 507 coefficients.
Aggregator did 28660 substitutions.
Reduced MIP has 4295 rows, 29306 columns, and 62960 nonzeros.
Reduced MIP has 29280 binaries, 26 generals, 0 SOSs, and 0 indicators.
Presolve time = 0.30 sec. (318.09 ticks)
Tried aggregator 1 time.
Detecting symmetries...
Reduced MIP has 4295 rows, 29306 columns, and 62960 nonzeros.
Reduced MIP has 29280 binaries, 26 generals, 0 SOSs, and 0 indicators.
Presolve time = 0.05 sec. (47.71 ticks)
Probing fixed 40 vars, tightened 0 bounds.
Probing time = 0.12 sec. (15.86 ticks)
Clique table members: 59582.
MIP emphasis: balance optimality and feasibility.
MIP search method: dynamic search.
Parallel mode: deterministic, using up to 8 threads.
Root relaxation solution time = 0.35 sec. (235.17 ticks)

        Nodes                                         Cuts/
   Node  Left     Objective  IInf  Best Integer    Best Bound    ItCnt     Gap

      0     0       26.3801  3248                     26.3801     3821         
      0     0       41.0000   597                    Cuts: 40     8785         
      0     0       41.0000   522                    Cuts: 40    14443         
*     0+    0                           47.0000       41.0000            12.77%
      0     0       41.0000   541       47.0000  ZeroHalf: 12    18741   12.77%
*     0+    0                           45.0000       41.0000             8.89%
*     0+    0                           43.0000       41.0000             4.65%
      0     2       41.0000   503       43.0000       41.0000    18741    4.65%
Elapsed time = 55.18 sec. (25120.91 ticks, tree = 0.02 MB, solutions = 3)
      1     3       41.0000   408       43.0000       41.0000    24681    4.65%
      2     4       41.0000   395       43.0000       41.0000    25492    4.65%
      3     3       41.0000   277       43.0000       41.0000    22501    4.65%
      4     5       41.0000   300       43.0000       41.0000    29192    4.65%
      6     4       41.0000   418       43.0000       41.0000    30993    4.65%
      7     9       41.0000   381       43.0000       41.0000    44165    4.65%
      9     6       41.0000   446       43.0000       41.0000    33981    4.65%
     14    11       41.0000   302       43.0000       41.0000    46897    4.65%
     17    15       41.0000   167       43.0000       41.0000    58248    4.65%
     22    16       41.1429   168       43.0000       41.0000    61165    4.65%
Elapsed time = 74.22 sec. (34239.95 ticks, tree = 0.07 MB, solutions = 3)
     27    18       41.2000   260       43.0000       41.0000    65481    4.65%
     33    28       41.0000   147       43.0000       41.0000    95975    4.65%
     45    40       41.0000    95       43.0000       41.0000   147448    4.65%
     61    47       41.0909   146       43.0000       41.0000   170295    4.65%
     73    52       41.1667    50       43.0000       41.0000   173214    4.65%
*    80    66      integral     0       42.0000       41.0000   202803    2.38%
     86    78       41.0897   392       42.0000       41.0000   217292    2.38%
    103    53       41.0000   106       42.0000       41.0000   230084    2.38%
    110    51       41.0000   208       42.0000       41.0000   227556    2.38%
    119    48       41.0000    94       42.0000       41.0000   257142    2.38%
    137    61       41.0000   164       42.0000       41.0000   287058    2.38%
Elapsed time = 110.05 sec. (44742.96 ticks, tree = 0.32 MB, solutions = 4)
    181    76       41.0000   186       42.0000       41.0000   291705    2.38%
    224    80       41.0000   243       42.0000       41.0000   323535    2.38%
    295    89       41.0000    87       42.0000       41.0000   330803    2.38%
    416   154        cutoff             42.0000       41.0000   402186    2.38%
    588   145       41.0000   118       42.0000       41.0000   392689    2.38%
    812   245       41.0000   115       42.0000       41.0000   474835    2.38%
   1079   271       41.0000   218       42.0000       41.0000   533590    2.38%
   1360   607       41.0000   162       42.0000       41.0000   669586    2.38%
   1665   566       41.0000   193       42.0000       41.0000   654322    2.38%
   1913   984        cutoff             42.0000       41.0000   847585    2.38%
Elapsed time = 141.87 sec. (54319.95 ticks, tree = 12.66 MB, solutions = 4)
   2106  1118       41.0000   253       42.0000       41.0000   901622    2.38%
   2313  1243       41.0000   268       42.0000       41.0000  1064323    2.38%
   2574  1264        cutoff             42.0000       41.0000  1020527    2.38%
   2827  1441        cutoff             42.0000       41.0000  1166019    2.38%
   3041  1535       41.0000   264       42.0000       41.0000  1196860    2.38%
   3241  1647       41.0000   113       42.0000       41.0000  1296114    2.38%
   3458  1751       41.0000   264       42.0000       41.0000  1341797    2.38%

Performing restart 1

Repeating presolve.
Tried aggregator 3 times.
MIP Presolve eliminated 942 rows and 17526 columns.
MIP Presolve modified 4 coefficients.
Aggregator did 730 substitutions.
Reduced MIP has 2623 rows, 11050 columns, and 24624 nonzeros.
Reduced MIP has 11050 binaries, 0 generals, 0 SOSs, and 0 indicators.
Presolve time = 0.10 sec. (61.56 ticks)
Tried aggregator 2 times.
MIP Presolve eliminated 8 rows and 49 columns.
MIP Presolve modified 2 coefficients.
Aggregator did 6 substitutions.
Reduced MIP has 2609 rows, 10995 columns, and 24515 nonzeros.
Reduced MIP has 10995 binaries, 0 generals, 0 SOSs, and 0 indicators.
Presolve time = 0.03 sec. (26.96 ticks)
Represolve time = 0.34 sec. (222.80 ticks)
   3531     0       41.0000   252       42.0000       Cuts: 9  1559953    2.38%
   3531     0       41.0000   421       42.0000      Cuts: 73  1562189    2.38%
   3531     0       41.0000   233       42.0000   ZeroHalf: 4  1563022    2.38%
   3531     0       41.0000   282       42.0000      Cuts: 41  1565433    2.38%
   3531     2       41.0000   252       42.0000       41.0000  1565433    2.38%
   3533     4       41.0000   274       42.0000       41.0000  1571639    2.38%
   3536     3        cutoff             42.0000       41.0000  1576621    2.38%
Elapsed time = 191.74 sec. (77904.29 ticks, tree = 0.02 MB, solutions = 4)
   3542     7       41.0000   256       42.0000       41.0000  1586745    2.38%
   3552    13       41.0000   542       42.0000       41.0000  1602258    2.38%
   3564    13       41.0000   313       42.0000       41.0000  1613411    2.38%
   3577    24       41.0000   287       42.0000       41.0000  1650437    2.38%
   3604    33        cutoff             42.0000       41.0000  1672182    2.38%
   3631    40       41.0000   561       42.0000       41.0000  1682850    2.38%
   3661    53       41.0000   326       42.0000       41.0000  1705708    2.38%
   3707    64       41.0000   308       42.0000       41.0000  1761872    2.38%
   3784   101       41.0000   191       42.0000       41.0000  1813896    2.38%
   3898   123       41.0000   114       42.0000       41.0000  1868063    2.38%
Elapsed time = 219.85 sec. (88048.42 ticks, tree = 0.60 MB, solutions = 4)
   3950   141        cutoff             42.0000       41.0000  1918781    2.38%
   3985   163       41.0000   747       42.0000       41.0000  1930829    2.38%
   4047   174    infeasible             42.0000       41.0000  2026315    2.38%
   4099   193        cutoff             42.0000       41.0000  2079007    2.38%
   4179   206    infeasible             42.0000       41.0000  2106362    2.38%
   4250   214    infeasible             42.0000       41.0000  2170230    2.38%
   4307   225    infeasible             42.0000       41.0000  2150543    2.38%
   4384   286       41.0000   323       42.0000       41.0000  2250158    2.38%
   4478   284       41.0000   366       42.0000       41.0000  2251811    2.38%
   4579   310       41.0000   414       42.0000       41.0000  2302749    2.38%
Elapsed time = 248.03 sec. (97688.98 ticks, tree = 3.59 MB, solutions = 4)
   4690   329       41.0000   200       42.0000       41.0000  2308309    2.38%
   4829   403    infeasible             42.0000       41.0000  2374625    2.38%
   4996   428       41.0000   352       42.0000       41.0000  2399557    2.38%
   5225   486    infeasible             42.0000       41.0000  2480857    2.38%
   5695   542        cutoff             42.0000       41.0000  2491461    2.38%
   6025   603       41.0000   170       42.0000       41.0000  2541913    2.38%
   6315   664    infeasible             42.0000       41.0000  2648604    2.38%
   6502   689       41.0000   363       42.0000       41.0000  2690389    2.38%
   6747   687       41.0000   363       42.0000       41.0000  2706082    2.38%
   6991   739       41.0000   241       42.0000       41.0000  2773245    2.38%
Elapsed time = 275.92 sec. (107265.28 ticks, tree = 12.06 MB, solutions = 4)
   7231   761       41.0000   432       42.0000       41.0000  2808243    2.38%
   7539   826       41.0000   493       42.0000       41.0000  2871703    2.38%
   7753   925       41.0000   316       42.0000       41.0000  2937261    2.38%
   7892   903        cutoff             42.0000       41.0000  3009225    2.38%
   8057   837    infeasible             42.0000       41.0000  3124746    2.38%
   8213   809        cutoff             42.0000       41.0000  3154747    2.38%
   8321   778        cutoff             42.0000       41.0000  3192482    2.38%
   8421   703        cutoff             42.0000       41.0000  3267508    2.38%
   8512   661        cutoff             42.0000       41.0000  3379753    2.38%
   8619   652        cutoff             42.0000       41.0000  3389389    2.38%
Elapsed time = 304.47 sec. (116850.51 ticks, tree = 9.29 MB, solutions = 4)
   8758   675    infeasible             42.0000       41.0000  3461927    2.38%
   8887   712       41.0000   164       42.0000       41.0000  3542737    2.38%
   9007   729       41.0000   389       42.0000       41.0000  3567169    2.38%
   9142   830       41.0000   237       42.0000       41.0000  3678092    2.38%
   9291   830       41.0000   223       42.0000       41.0000  3708259    2.38%
   9382   860    infeasible             42.0000       41.0000  3800665    2.38%
   9471   872        cutoff             42.0000       41.0000  3903085    2.38%
   9549   846    infeasible             42.0000       41.0000  3995997    2.38%
   9639   850       41.0000   283       42.0000       41.0000  4008527    2.38%
   9721   838       41.0000   127       42.0000       41.0000  4084265    2.38%
Elapsed time = 333.40 sec. (126446.50 ticks, tree = 13.23 MB, solutions = 4)
   9811   795       41.0000   468       42.0000       41.0000  4251353    2.38%
   9935   780       41.0000   398       42.0000       41.0000  4309867    2.38%
  10036   769       41.0000   354       42.0000       41.0000  4400163    2.38%
  10125   715        cutoff             42.0000       41.0000  4540715    2.38%
  10220   697        cutoff             42.0000       41.0000  4561696    2.38%
  10303   677        cutoff             42.0000       41.0000  4673635    2.38%
  10429   667       41.0000   515       42.0000       41.0000  4714080    2.38%
  10569   642       41.0000   390       42.0000       41.0000  4818028    2.38%
  10663   607    infeasible             42.0000       41.0000  4914823    2.38%
  11011   477       41.0000   713       42.0000       41.0000  5212275    2.38%
Elapsed time = 369.78 sec. (138937.30 ticks, tree = 5.65 MB, solutions = 4)
  11275   346        cutoff             42.0000       41.0000  5523127    2.38%
  11496   295        cutoff             42.0000       41.0000  5846738    2.38%
  11774   310       41.0000   250       42.0000       41.0000  6050477    2.38%
  12360   567    infeasible             42.0000       41.0000  6277700    2.38%
  13040   680       41.0000   347       42.0000       41.0000  6455290    2.38%
  13792   782       41.0000   251       42.0000       41.0000  6643387    2.38%
  14646   921        cutoff             42.0000       41.0000  6875377    2.38%
  15446  1074    infeasible             42.0000       41.0000  7167759    2.38%
  16200  1045       41.0000   310       42.0000       41.0000  7502717    2.38%
  16958   980        cutoff             42.0000       41.0000  7618174    2.38%
Elapsed time = 472.60 sec. (177127.90 ticks, tree = 15.00 MB, solutions = 4)
  18720  1105    infeasible             42.0000       41.0000  7965891    2.38%
  19757  1363        cutoff             42.0000       41.0000  8289778    2.38%
  20688  1247    infeasible             42.0000       41.0000  8645498    2.38%
  21593  1410    infeasible             42.0000       41.0000  8996230    2.38%
  22377  1427       41.0000    72       42.0000       41.0000  9220342    2.38%
  23274  1480       41.0000   287       42.0000       41.0000  9582931    2.38%
Starting limited solution polishing.
  24310  1465       41.0000   285       42.0000       41.0000  9981742    2.38%
  25056  1459    infeasible             42.0000       41.0000 10305760    2.38%
  25882  1596       41.0000   313       42.0000       41.0000 10525756    2.38%
  26777  1778    infeasible             42.0000       41.0000 10840104    2.38%
Elapsed time = 573.75 sec. (215311.87 ticks, tree = 28.56 MB, solutions = 4)
  27587  1834    infeasible             42.0000       41.0000 11470484    2.38%
  28298  1751    infeasible             42.0000       41.0000 11857527    2.38%

Clique cuts applied:  1
Cover cuts applied:  2
Mixed integer rounding cuts applied:  15
Zero-half cuts applied:  145
Lift and project cuts applied:  18
Gomory fractional cuts applied:  24

Root node processing (before b&c):
  Real time             =   55.08 sec. (25082.53 ticks)
Parallel b&c, 8 threads:
  Real time             =  544.94 sec. (200676.55 ticks)
  Sync time (average)   =   84.67 sec.
  Wait time (average)   =    0.02 sec.
                          ------------
Total (root+branch&cut) =  600.01 sec. (225759.08 ticks)
